(declare-sort sk 0)
(declare-sort fun1 0)
(declare-sort fun12 0)
(declare-sort fun13 0)
(declare-sort fun14 0)
(declare-sort fun15 0)
(declare-sort sk2 0)
(declare-datatype list2 ((nil2) (cons2 (head2 sk) (tail2 list2))))
(declare-datatype list ((nil) (cons (head list2) (tail list))))
(declare-fun map2 (fun1 list2) list2)
(declare-fun ++ (list2 list2) list2)
(declare-fun >>= (list2 fun12) list2)
(declare-fun concat2 (list) list2)
(declare-fun apply1 (fun1 sk) sk)
(declare-fun apply12 (fun12 sk) list2)
(declare-fun apply13 (fun13 sk) sk2)
(declare-fun apply14 (fun14 sk2) sk)
(declare-fun apply15 (fun15 sk2) sk2)
(assert (= (concat2 nil) nil2))
(assert (forall ((f fun1)) (= (map2 f nil2) nil2)))
(assert
  (forall ((f fun1) (y sk) (xs list2))
    (= (map2 f (cons2 y xs)) (cons2 (apply1 f y) (map2 f xs)))))
(assert (forall ((y list2)) (= (++ nil2 y) y)))
(assert
  (forall ((y list2) (z sk) (xs list2))
    (= (++ (cons2 z xs) y) (cons2 z (++ xs y)))))
(assert (forall ((y fun12)) (= (>>= nil2 y) nil2)))
(assert
  (forall ((y fun12) (z sk) (xs list2))
    (= (>>= (cons2 z xs) y) (++ (apply12 y z) (>>= xs y)))))
(assert
  (forall ((y list2) (xs list))
    (= (concat2 (cons y xs)) (++ y (concat2 xs)))))
